120
150
46
57
58
41
57
47
57
46
55
44
51
51
51
59
49
44
57
59
41
56
45
50
49
47
48
47
55
47
46
51
54
54
49
47
49
49
54
47
52
56
41
57
45
44
49
51
41
41
51
40
59
56
42
59
42
52
49
53
50
48
49
57
47
60
46
45
44
52
47
51
44
44
55
59
49
57
47
51
47
57
46
46
42
48
51
51
47
55
48
56
49
52
57
45
54
50
50
58
57
44
49
46
42
41
47
52
51
40
52
48
50
47
46
57
51
43
56
48
52
50
